treewidth/data/SierpinskiGasketGraph_5.gr
p tw 123 243
1 2
1 33
2 36
2 33
2 34
36 47
36 34
36 35
47 58
47 35
47 37
58 69
58 37
58 38
69 80
69 38
69 39
80 91
80 39
80 40
91 102
91 40
91 41
102 113
102 41
102 42
113 3
113 42
113 43
3 14
3 43
3 44
14 25
14 44
14 45
25 29
25 45
25 46
29 30
29 46
29 48
30 31
30 48
30 49
31 32
31 49
31 50
32 50
33 34
33 51
34 51
35 37
35 53
37 53
38 39
38 54
39 54
40 41
40 56
41 56
42 43
42 57
43 57
44 45
44 60
45 60
46 48
46 61
48 61
49 50
49 63
50 63
51 52
51 64
52 53
52 64
52 65
53 65
54 55
54 66
55 56
55 66
55 67
56 67
57 59
57 68
59 60
59 68
59 70
60 70
61 62
61 71
62 63
62 71
62 72
63 72
64 65
64 73
65 73
66 67
66 77
67 77
68 70
68 78
70 78
71 72
71 83
72 83
73 74
73 84
74 75
74 84
74 85
75 76
75 85
75 86
76 77
76 86
76 87
77 87
78 79
78 88
79 81
79 88
79 89
81 82
81 89
81 90
82 83
82 90
82 92
83 92
84 85
84 93
85 93
86 87
86 95
87 95
88 89
88 96
89 96
90 92
90 98
92 98
93 94
93 99
94 95
94 99
94 100
95 100
96 97
96 101
97 98
97 101
97 103
98 103
99 100
99 104
100 104
101 103
101 112
103 112
104 105
104 114
105 106
105 114
105 115
106 107
106 115
106 116
107 108
107 116
107 117
108 109
108 117
108 118
109 110
109 118
109 119
110 111
110 119
110 120
111 112
111 120
111 121
112 121
114 115
114 122
115 122
116 117
116 4
117 4
118 119
118 5
119 5
120 121
120 7
121 7
122 123
122 8
123 4
123 8
123 9
4 9
5 6
5 10
6 7
6 10
6 11
7 11
8 9
8 12
9 12
10 11
10 17
11 17
12 13
12 18
13 15
13 18
13 19
15 16
15 19
15 20
16 17
16 20
16 21
17 21
18 19
18 22
19 22
20 21
20 24
21 24
22 23
22 26
23 24
23 26
23 27
24 27
26 27
26 28
27 28
