treewidth/data/SierpinskiGasketGraph_5.td
c width = 4, time = 0.750214
s td 81 5 123
b 1 2 33 34 36
b 2 33 34 36 51
b 3 20 21 22 24
b 4 12 15 20 21 22
b 5 12 15 18 19 22
b 6 12 13 15 18 19
b 7 12 15 17 20 21
b 8 15 16 17 20 21
b 9 61 62 63 71 72
b 10 25 61 63 71 72
b 11 25 29 48 61 63
b 12 29 30 48 63
b 13 25 29 46 48 61
b 14 25 71 72 83
b 15 25 78 83 102 112
b 16 25 57 60 78 102
b 17 3 25 57 60 102
b 18 3 25 44 45 60
b 19 3 14 25 44 45
b 20 3 43 57 102 113
b 21 42 43 57 102 113
b 22 57 60 68 70 78
b 23 57 59 60 68 70
b 24 78 83 96 98 112
b 25 78 81 83 96 98
b 26 78 81 88 89 96
b 27 78 79 81 88 89
b 28 81 83 90 92 98
b 29 81 82 83 90 92
b 30 96 98 101 103 112
b 31 96 97 98 101 103
b 32 22 23 24 26
b 33 23 24 26 27
b 34 30 31 49 50
b 35 30 49 50 63
b 36 58 64 65 73
b 37 51 53 58 64 65
b 38 35 47 51 53 58
b 39 35 36 47 51
b 40 35 37 47 53 58
b 41 51 52 53 64 65
b 42 73 77 102 104
b 43 54 73 77 80 102
b 44 38 54 69 73 80
b 45 38 39 54 69 80
b 46 38 58 69 73
b 47 54 56 77 80 102
b 48 41 56 80 91 102
b 49 40 41 56 80 91
b 50 54 56 66 67 77
b 51 54 55 56 66 67
b 52 73 77 93 95 104
b 53 73 75 77 93 95
b 54 73 75 84 85 93
b 55 73 74 75 84 85
b 56 75 77 86 87 95
b 57 75 76 77 86 87
b 58 93 95 99 100 104
b 59 93 94 95 99 100
b 60 17 104 108 112
b 61 4 17 104 108 122
b 62 4 8 9 17 122
b 63 8 9 12 17
b 64 4 8 9 122 123
b 65 4 104 106 108 122
b 66 104 106 114 115 122
b 67 104 105 106 114 115
b 68 4 106 108 116 117
b 69 106 107 108 116 117
b 70 7 17 108 110 112
b 71 5 7 17 108 110
b 72 5 7 10 11 17
b 73 5 6 7 10 11
b 74 5 108 110 118 119
b 75 108 109 110 118 119
b 76 7 110 112 120 121
b 77 110 111 112 120 121
b 78 102 104 112
b 79 27 26 28
b 80 33 2 1
b 81 50 31 32
1 2
5 6
4 5
7 8
4 7
3 4
11 12
11 13
10 11
10 14
9 10
18 19
17 18
20 21
17 20
16 17
22 23
16 22
15 16
26 27
25 26
28 29
25 28
24 25
30 31
24 30
15 24
32 33
34 35
38 39
38 40
37 38
37 41
36 37
44 45
44 46
43 44
48 49
47 48
50 51
47 50
43 47
42 43
54 55
53 54
56 57
53 56
52 53
58 59
52 58
42 52
62 63
62 64
61 62
66 67
65 66
68 69
65 68
61 65
60 61
72 73
71 72
74 75
71 74
70 71
76 77
70 76
60 70
63 7
15 14
2 39
3 32
12 35
46 36
78 42
15 78
60 78
33 79
1 80
34 81
